53
5
0 7 8 9 10 11 13 14 15 16 19 20 21 22 24 26 27 29 30 32 33 35 36 37 38 39 40 42 43 45 46 47 48 50 51 52
1 7 8 11 16 17 22 23 24 25 29 30 31 32 33 40 42 44 46 47 48
2 9 10 11 13 19 20 22 23 24 27 28 29 31 32 37 38 39 40 43 45 46 47 50
3 5 6 7 9 10 11 12 16 17 19 21 24 25 27 30 31 33 34 37 41 43 44 49 50 52
4 8 18 24 29 34 38 43 48 51
